; benchmark generated from python API
(set-info :status unknown)
(declare-fun args_0_8 () (_ BitVec 8))
(declare-fun strlen_77_64 () (_ BitVec 64))
(declare-fun args_1_8 () (_ BitVec 8))
(declare-fun strlen_79_64 () (_ BitVec 64))
(declare-fun args_2_8 () (_ BitVec 8))
(declare-fun strlen_81_64 () (_ BitVec 64))
(declare-fun strlen_83_64 () (_ BitVec 64))
(declare-fun args_3_8 () (_ BitVec 8))
(declare-fun args_4_8 () (_ BitVec 8))
(declare-fun strlen_85_64 () (_ BitVec 64))
(declare-fun strlen_87_64 () (_ BitVec 64))
(declare-fun args_5_16 () (_ BitVec 16))
(declare-fun strlen_91_64 () (_ BitVec 64))
(declare-fun args_6_16 () (_ BitVec 16))
(declare-fun strlen_99_64 () (_ BitVec 64))
(declare-fun args_7_16 () (_ BitVec 16))
(declare-fun strlen_108_64 () (_ BitVec 64))
(declare-fun args_8_16 () (_ BitVec 16))
(declare-fun strlen_116_64 () (_ BitVec 64))
(declare-fun args_9_16 () (_ BitVec 16))
(declare-fun strlen_126_64 () (_ BitVec 64))
(declare-fun args_10_32 () (_ BitVec 32))
(declare-fun strlen_143_64 () (_ BitVec 64))
(declare-fun args_11_32 () (_ BitVec 32))
(declare-fun strlen_158_64 () (_ BitVec 64))
(declare-fun args_12_32 () (_ BitVec 32))
(declare-fun strlen_176_64 () (_ BitVec 64))
(declare-fun args_13_32 () (_ BitVec 32))
(declare-fun strlen_814_64 () (_ BitVec 64))
(declare-fun strlen_242_64 () (_ BitVec 64))
(declare-fun strlen_255_64 () (_ BitVec 64))
(declare-fun strlen_271_64 () (_ BitVec 64))
(declare-fun strlen_391_64 () (_ BitVec 64))
(declare-fun strlen_426_64 () (_ BitVec 64))
(declare-fun strlen_460_64 () (_ BitVec 64))
(declare-fun strlen_493_64 () (_ BitVec 64))
(declare-fun strlen_529_64 () (_ BitVec 64))
(declare-fun strlen_567_64 () (_ BitVec 64))
(declare-fun strlen_606_64 () (_ BitVec 64))
(declare-fun strlen_645_64 () (_ BitVec 64))
(declare-fun strlen_682_64 () (_ BitVec 64))
(declare-fun strlen_716_64 () (_ BitVec 64))
(declare-fun strlen_750_64 () (_ BitVec 64))
(declare-fun strlen_783_64 () (_ BitVec 64))
(declare-fun strlen_843_64 () (_ BitVec 64))
(declare-fun args_14_32 () (_ BitVec 32))
(declare-fun strlen_868_64 () (_ BitVec 64))
(declare-fun args_15_64 () (_ BitVec 64))
(declare-fun strlen_892_64 () (_ BitVec 64))
(declare-fun args_16_64 () (_ BitVec 64))
(declare-fun strlen_914_64 () (_ BitVec 64))
(declare-fun args_17_64 () (_ BitVec 64))
(declare-fun strlen_935_64 () (_ BitVec 64))
(declare-fun args_18_64 () (_ BitVec 64))
(declare-fun strlen_954_64 () (_ BitVec 64))
(declare-fun args_19_64 () (_ BitVec 64))
(declare-fun sys_time_1097_64 () (_ BitVec 64))
(declare-fun sys_time_1108_64 () (_ BitVec 64))
(assert
 (let (($x69 (= (_ bv0 8) args_0_8)))
 (not $x69)))
(assert
 (= (_ bv1 64) strlen_77_64))
(assert
 (let (($x359 (= (_ bv0 8) args_1_8)))
 (not $x359)))
(assert
 (= (_ bv1 64) strlen_79_64))
(assert
 (let (($x211 (= (_ bv0 8) args_2_8)))
 (not $x211)))
(assert
 (= (_ bv1 64) strlen_81_64))
(assert
 (= (_ bv1 64) strlen_83_64))
(assert
 (let (($x845 (= (_ bv0 8) args_3_8)))
 (not $x845)))
(assert
 (let (($x1140 (= (_ bv0 8) args_4_8)))
 (not $x1140)))
(assert
 (= (_ bv1 64) strlen_85_64))
(assert
 (= (_ bv2 64) strlen_87_64))
(assert
 (let ((?x1474 ((_ extract 15 8) args_5_16)))
 (let (($x1010 (= (_ bv0 8) ?x1474)))
 (not $x1010))))
(assert
 (let ((?x1473 ((_ extract 7 0) args_5_16)))
 (let (($x1480 (= (_ bv0 8) ?x1473)))
 (not $x1480))))
(assert
 (= (_ bv2 64) strlen_91_64))
(assert
 (let ((?x1906 ((_ extract 7 0) args_6_16)))
 (let (($x1220 (= (_ bv0 8) ?x1906)))
 (not $x1220))))
(assert
 (let ((?x1646 ((_ extract 15 8) args_6_16)))
 (let (($x1544 (= (_ bv0 8) ?x1646)))
 (not $x1544))))
(assert
 (= (_ bv2 64) strlen_99_64))
(assert
 (let ((?x944 ((_ extract 7 0) args_7_16)))
 (let (($x2153 (= (_ bv0 8) ?x944)))
 (not $x2153))))
(assert
 (let ((?x2056 ((_ extract 15 8) args_7_16)))
 (let (($x2419 (= (_ bv0 8) ?x2056)))
 (not $x2419))))
(assert
 (= (_ bv2 64) strlen_108_64))
(assert
 (let ((?x2766 ((_ extract 15 8) args_8_16)))
 (let (($x3226 (= (_ bv0 8) ?x2766)))
 (not $x3226))))
(assert
 (let ((?x2491 ((_ extract 7 0) args_8_16)))
 (let (($x3207 (= (_ bv0 8) ?x2491)))
 (not $x3207))))
(assert
 (= (_ bv2 64) strlen_116_64))
(assert
 (let ((?x3102 ((_ extract 15 8) args_9_16)))
 (let (($x3771 (= (_ bv0 8) ?x3102)))
 (not $x3771))))
(assert
 (let ((?x3735 ((_ extract 7 0) args_9_16)))
 (let (($x3581 (= (_ bv0 8) ?x3735)))
 (not $x3581))))
(assert
 (= (_ bv4 64) strlen_126_64))
(assert
 (let ((?x3761 ((_ extract 15 8) args_10_32)))
 (let (($x3847 (= (_ bv0 8) ?x3761)))
 (not $x3847))))
(assert
 (let ((?x3490 ((_ extract 7 0) args_10_32)))
 (let (($x3139 (= (_ bv0 8) ?x3490)))
 (not $x3139))))
(assert
 (let ((?x3388 ((_ extract 23 16) args_10_32)))
 (let (($x3778 (= (_ bv0 8) ?x3388)))
 (not $x3778))))
(assert
 (let ((?x3227 ((_ extract 31 24) args_10_32)))
 (let (($x3588 (= (_ bv0 8) ?x3227)))
 (not $x3588))))
(assert
 (= (_ bv4 64) strlen_143_64))
(assert
 (let ((?x5780 ((_ extract 15 8) args_11_32)))
 (let (($x5788 (= (_ bv0 8) ?x5780)))
 (not $x5788))))
(assert
 (let ((?x5702 ((_ extract 7 0) args_11_32)))
 (let (($x5773 (= (_ bv0 8) ?x5702)))
 (not $x5773))))
(assert
 (let ((?x5688 ((_ extract 23 16) args_11_32)))
 (let (($x5775 (= (_ bv0 8) ?x5688)))
 (not $x5775))))
(assert
 (let ((?x5760 ((_ extract 31 24) args_11_32)))
 (let (($x5875 (= (_ bv0 8) ?x5760)))
 (not $x5875))))
(assert
 (= (_ bv4 64) strlen_158_64))
(assert
 (let ((?x6440 ((_ extract 7 0) args_12_32)))
 (let (($x6436 (= (_ bv0 8) ?x6440)))
 (not $x6436))))
(assert
 (let ((?x5236 ((_ extract 31 24) args_12_32)))
 (let (($x7048 (= (_ bv0 8) ?x5236)))
 (not $x7048))))
(assert
 (let ((?x7075 ((_ extract 15 8) args_12_32)))
 (let (($x5268 (= (_ bv0 8) ?x7075)))
 (not $x5268))))
(assert
 (let ((?x5265 ((_ extract 23 16) args_12_32)))
 (let (($x4918 (= (_ bv0 8) ?x5265)))
 (not $x4918))))
(assert
 (let ((?x8532 ((_ extract 63 63) strlen_176_64)))
 (= (_ bv0 1) ?x8532)))
(assert
 (let ((?x8710 (bvadd (_ bv576460752303357864 64) strlen_176_64)))
 (let ((?x8592 ((_ extract 7 0) args_13_32)))
 (let (($x8567 (= (_ bv0 8) ?x8592)))
 (let ((?x12896 (ite $x8567 (_ bv576460752303357867 64) (_ bv576460752303357868 64))))
 (let ((?x8497 ((_ extract 15 8) args_13_32)))
 (let (($x8524 (= (_ bv0 8) ?x8497)))
 (let ((?x12930 (ite $x8524 (_ bv576460752303357866 64) ?x12896)))
 (let ((?x8547 ((_ extract 23 16) args_13_32)))
 (let (($x7742 (= (_ bv0 8) ?x8547)))
 (let ((?x12843 (ite $x7742 (_ bv576460752303357865 64) ?x12930)))
 (let ((?x8516 ((_ extract 31 24) args_13_32)))
 (let (($x8529 (= (_ bv0 8) ?x8516)))
 (let ((?x12905 (ite $x8529 (_ bv576460752303357864 64) ?x12843)))
 (= ?x12905 ?x8710)))))))))))))))
(assert
 (let ((?x89826 (bvadd (_ bv576460752303357864 64) strlen_814_64)))
 (let ((?x8592 ((_ extract 7 0) args_13_32)))
 (let (($x8567 (= (_ bv0 8) ?x8592)))
 (let ((?x12896 (ite $x8567 (_ bv576460752303357867 64) (_ bv576460752303357868 64))))
 (let ((?x8497 ((_ extract 15 8) args_13_32)))
 (let (($x8524 (= (_ bv0 8) ?x8497)))
 (let ((?x12930 (ite $x8524 (_ bv576460752303357866 64) ?x12896)))
 (let ((?x8547 ((_ extract 23 16) args_13_32)))
 (let (($x7742 (= (_ bv0 8) ?x8547)))
 (let ((?x12843 (ite $x7742 (_ bv576460752303357865 64) ?x12930)))
 (let ((?x8516 ((_ extract 31 24) args_13_32)))
 (let (($x8529 (= (_ bv0 8) ?x8516)))
 (let ((?x12905 (ite $x8529 (_ bv576460752303357864 64) ?x12843)))
 (= ?x12905 ?x89826)))))))))))))))
(assert
 (let ((?x89849 (bvadd (_ bv1 64) strlen_814_64)))
 (let ((?x90036 ((_ extract 63 3) ?x89849)))
 (= (_ bv0 61) ?x90036))))
(assert
 (let ((?x90183 ((_ extract 2 0) strlen_814_64)))
 (let ((?x90051 (bvadd (_ bv1 3) ?x90183)))
 (bvule ?x90051 (_ bv4 3)))))
(assert
 (= (_ bv1 64) strlen_242_64))
(assert
 (= (_ bv1 64) strlen_255_64))
(assert
 (= (_ bv1 64) strlen_271_64))
(assert
 (= (_ bv1 64) strlen_391_64))
(assert
 (= (_ bv1 64) strlen_426_64))
(assert
 (= (_ bv1 64) strlen_460_64))
(assert
 (= (_ bv1 64) strlen_493_64))
(assert
 (= (_ bv2 64) strlen_529_64))
(assert
 (= (_ bv2 64) strlen_567_64))
(assert
 (= (_ bv2 64) strlen_606_64))
(assert
 (= (_ bv2 64) strlen_645_64))
(assert
 (= (_ bv2 64) strlen_682_64))
(assert
 (= (_ bv4 64) strlen_716_64))
(assert
 (= (_ bv4 64) strlen_750_64))
(assert
 (= (_ bv4 64) strlen_783_64))
(assert
 (let ((?x90593 (bvadd (_ bv576460752303357869 64) strlen_843_64)))
 (let ((?x8685 ((_ extract 7 0) args_14_32)))
 (let (($x8778 (= (_ bv0 8) ?x8685)))
 (let ((?x13011 (ite $x8778 (_ bv576460752303357872 64) (_ bv576460752303357873 64))))
 (let ((?x8754 ((_ extract 15 8) args_14_32)))
 (let (($x8818 (= (_ bv0 8) ?x8754)))
 (let ((?x13039 (ite $x8818 (_ bv576460752303357871 64) ?x13011)))
 (let ((?x8747 ((_ extract 23 16) args_14_32)))
 (let (($x8600 (= (_ bv0 8) ?x8747)))
 (let ((?x13055 (ite $x8600 (_ bv576460752303357870 64) ?x13039)))
 (let ((?x8789 ((_ extract 31 24) args_14_32)))
 (let (($x8713 (= (_ bv0 8) ?x8789)))
 (let ((?x13225 (ite $x8713 (_ bv576460752303357869 64) ?x13055)))
 (= ?x13225 ?x90593)))))))))))))))
(assert
 (let ((?x94081 (bvadd (_ bv1 64) strlen_843_64)))
 (let ((?x93919 ((_ extract 63 3) ?x94081)))
 (= (_ bv0 61) ?x93919))))
(assert
 (let ((?x93993 ((_ extract 2 0) strlen_843_64)))
 (let ((?x90408 (bvadd (_ bv1 3) ?x93993)))
 (bvule ?x90408 (_ bv5 3)))))
(assert
 (bvule strlen_843_64 (_ bv18446744073709551614 64)))
(assert
 (let ((?x97869 (bvadd (_ bv576460752303357874 64) strlen_868_64)))
 (let ((?x12719 ((_ extract 7 0) args_15_64)))
 (let (($x12599 (= (_ bv0 8) ?x12719)))
 (let ((?x13251 (ite $x12599 (_ bv576460752303357881 64) (_ bv576460752303357882 64))))
 (let ((?x12687 ((_ extract 15 8) args_15_64)))
 (let (($x12671 (= (_ bv0 8) ?x12687)))
 (let ((?x13247 (ite $x12671 (_ bv576460752303357880 64) ?x13251)))
 (let ((?x12566 ((_ extract 23 16) args_15_64)))
 (let (($x12715 (= (_ bv0 8) ?x12566)))
 (let ((?x13261 (ite $x12715 (_ bv576460752303357879 64) ?x13247)))
 (let ((?x12654 ((_ extract 31 24) args_15_64)))
 (let (($x12645 (= (_ bv0 8) ?x12654)))
 (let ((?x12676 (ite $x12645 (_ bv576460752303357878 64) ?x13261)))
 (let ((?x12395 ((_ extract 39 32) args_15_64)))
 (let (($x12668 (= (_ bv0 8) ?x12395)))
 (let ((?x12427 (ite $x12668 (_ bv576460752303357877 64) ?x12676)))
 (let ((?x12620 ((_ extract 47 40) args_15_64)))
 (let (($x12529 (= (_ bv0 8) ?x12620)))
 (let ((?x12859 (ite $x12529 (_ bv576460752303357876 64) ?x12427)))
 (let ((?x12640 ((_ extract 55 48) args_15_64)))
 (let (($x12613 (= (_ bv0 8) ?x12640)))
 (let ((?x13528 (ite $x12613 (_ bv576460752303357875 64) ?x12859)))
 (let ((?x12684 ((_ extract 63 56) args_15_64)))
 (let (($x12730 (= (_ bv0 8) ?x12684)))
 (let ((?x13670 (ite $x12730 (_ bv576460752303357874 64) ?x13528)))
 (= ?x13670 ?x97869)))))))))))))))))))))))))))
(assert
 (let ((?x98218 (bvadd (_ bv1 64) strlen_868_64)))
 (let ((?x97755 ((_ extract 63 4) ?x98218)))
 (= (_ bv0 60) ?x97755))))
(assert
 (let ((?x97791 ((_ extract 3 0) strlen_868_64)))
 (let ((?x97999 (bvadd (_ bv1 4) ?x97791)))
 (bvule ?x97999 (_ bv9 4)))))
(assert
 (bvule strlen_868_64 (_ bv18446744073709551614 64)))
(assert
 (let ((?x99138 (bvadd (_ bv576460752303357883 64) strlen_892_64)))
 (let ((?x16071 ((_ extract 7 0) args_16_64)))
 (let (($x15893 (= (_ bv0 8) ?x16071)))
 (let ((?x18009 (ite $x15893 (_ bv576460752303357890 64) (_ bv576460752303357891 64))))
 (let ((?x15920 ((_ extract 15 8) args_16_64)))
 (let (($x15905 (= (_ bv0 8) ?x15920)))
 (let ((?x18038 (ite $x15905 (_ bv576460752303357889 64) ?x18009)))
 (let ((?x16120 ((_ extract 23 16) args_16_64)))
 (let (($x16040 (= (_ bv0 8) ?x16120)))
 (let ((?x18044 (ite $x16040 (_ bv576460752303357888 64) ?x18038)))
 (let ((?x16091 ((_ extract 31 24) args_16_64)))
 (let (($x16125 (= (_ bv0 8) ?x16091)))
 (let ((?x18036 (ite $x16125 (_ bv576460752303357887 64) ?x18044)))
 (let ((?x16044 ((_ extract 39 32) args_16_64)))
 (let (($x16109 (= (_ bv0 8) ?x16044)))
 (let ((?x18029 (ite $x16109 (_ bv576460752303357886 64) ?x18036)))
 (let ((?x15231 ((_ extract 47 40) args_16_64)))
 (let (($x15832 (= (_ bv0 8) ?x15231)))
 (let ((?x18021 (ite $x15832 (_ bv576460752303357885 64) ?x18029)))
 (let ((?x15951 ((_ extract 55 48) args_16_64)))
 (let (($x15924 (= (_ bv0 8) ?x15951)))
 (let ((?x18015 (ite $x15924 (_ bv576460752303357884 64) ?x18021)))
 (let ((?x15821 ((_ extract 63 56) args_16_64)))
 (let (($x15881 (= (_ bv0 8) ?x15821)))
 (let ((?x18001 (ite $x15881 (_ bv576460752303357883 64) ?x18015)))
 (= ?x18001 ?x99138)))))))))))))))))))))))))))
(assert
 (let ((?x101385 (bvadd (_ bv1 64) strlen_892_64)))
 (let ((?x101390 ((_ extract 63 4) ?x101385)))
 (= (_ bv0 60) ?x101390))))
(assert
 (let ((?x101398 ((_ extract 3 0) strlen_892_64)))
 (let ((?x101267 (bvadd (_ bv1 4) ?x101398)))
 (bvule ?x101267 (_ bv9 4)))))
(assert
 (bvule strlen_892_64 (_ bv18446744073709551614 64)))
(assert
 (let ((?x100621 (bvadd (_ bv576460752303357892 64) strlen_914_64)))
 (let ((?x17285 ((_ extract 7 0) args_17_64)))
 (let (($x13048 (= (_ bv0 8) ?x17285)))
 (let ((?x19912 (ite $x13048 (_ bv576460752303357899 64) (_ bv576460752303357900 64))))
 (let ((?x16045 ((_ extract 15 8) args_17_64)))
 (let (($x16281 (= (_ bv0 8) ?x16045)))
 (let ((?x23127 (ite $x16281 (_ bv576460752303357898 64) ?x19912)))
 (let ((?x13888 ((_ extract 23 16) args_17_64)))
 (let (($x13927 (= (_ bv0 8) ?x13888)))
 (let ((?x22133 (ite $x13927 (_ bv576460752303357897 64) ?x23127)))
 (let ((?x16166 ((_ extract 31 24) args_17_64)))
 (let (($x14506 (= (_ bv0 8) ?x16166)))
 (let ((?x19735 (ite $x14506 (_ bv576460752303357896 64) ?x22133)))
 (let ((?x14555 ((_ extract 39 32) args_17_64)))
 (let (($x16257 (= (_ bv0 8) ?x14555)))
 (let ((?x20072 (ite $x16257 (_ bv576460752303357895 64) ?x19735)))
 (let ((?x16160 ((_ extract 47 40) args_17_64)))
 (let (($x17914 (= (_ bv0 8) ?x16160)))
 (let ((?x19859 (ite $x17914 (_ bv576460752303357894 64) ?x20072)))
 (let ((?x17949 ((_ extract 55 48) args_17_64)))
 (let (($x16357 (= (_ bv0 8) ?x17949)))
 (let ((?x20112 (ite $x16357 (_ bv576460752303357893 64) ?x19859)))
 (let ((?x16175 ((_ extract 63 56) args_17_64)))
 (let (($x16341 (= (_ bv0 8) ?x16175)))
 (let ((?x19993 (ite $x16341 (_ bv576460752303357892 64) ?x20112)))
 (= ?x19993 ?x100621)))))))))))))))))))))))))))
(assert
 (let ((?x104644 (bvadd (_ bv1 64) strlen_914_64)))
 (let ((?x104444 ((_ extract 63 4) ?x104644)))
 (= (_ bv0 60) ?x104444))))
(assert
 (let ((?x95878 ((_ extract 3 0) strlen_914_64)))
 (let ((?x104424 (bvadd (_ bv1 4) ?x95878)))
 (bvule ?x104424 (_ bv9 4)))))
(assert
 (bvule strlen_914_64 (_ bv18446744073709551614 64)))
(assert
 (let ((?x105017 (bvadd (_ bv576460752303357901 64) strlen_935_64)))
 (let ((?x21369 ((_ extract 7 0) args_18_64)))
 (let (($x23356 (= (_ bv0 8) ?x21369)))
 (let ((?x24376 (ite $x23356 (_ bv576460752303357908 64) (_ bv576460752303357909 64))))
 (let ((?x17981 ((_ extract 15 8) args_18_64)))
 (let (($x20999 (= (_ bv0 8) ?x17981)))
 (let ((?x24277 (ite $x20999 (_ bv576460752303357907 64) ?x24376)))
 (let ((?x23399 ((_ extract 23 16) args_18_64)))
 (let (($x23441 (= (_ bv0 8) ?x23399)))
 (let ((?x24342 (ite $x23441 (_ bv576460752303357906 64) ?x24277)))
 (let ((?x21200 ((_ extract 31 24) args_18_64)))
 (let (($x23434 (= (_ bv0 8) ?x21200)))
 (let ((?x24281 (ite $x23434 (_ bv576460752303357905 64) ?x24342)))
 (let ((?x18357 ((_ extract 39 32) args_18_64)))
 (let (($x23108 (= (_ bv0 8) ?x18357)))
 (let ((?x26188 (ite $x23108 (_ bv576460752303357904 64) ?x24281)))
 (let ((?x23328 ((_ extract 47 40) args_18_64)))
 (let (($x17902 (= (_ bv0 8) ?x23328)))
 (let ((?x26208 (ite $x17902 (_ bv576460752303357903 64) ?x26188)))
 (let ((?x15573 ((_ extract 55 48) args_18_64)))
 (let (($x23188 (= (_ bv0 8) ?x15573)))
 (let ((?x26014 (ite $x23188 (_ bv576460752303357902 64) ?x26208)))
 (let ((?x18296 ((_ extract 63 56) args_18_64)))
 (let (($x23498 (= (_ bv0 8) ?x18296)))
 (let ((?x25991 (ite $x23498 (_ bv576460752303357901 64) ?x26014)))
 (= ?x25991 ?x105017)))))))))))))))))))))))))))
(assert
 (let ((?x107219 (bvadd (_ bv1 64) strlen_935_64)))
 (let ((?x107162 ((_ extract 63 4) ?x107219)))
 (= (_ bv0 60) ?x107162))))
(assert
 (let ((?x107152 ((_ extract 3 0) strlen_935_64)))
 (let ((?x106996 (bvadd (_ bv1 4) ?x107152)))
 (bvule ?x106996 (_ bv9 4)))))
(assert
 (bvule strlen_935_64 (_ bv18446744073709551614 64)))
(assert
 (let ((?x107611 (bvadd (_ bv576460752303357910 64) strlen_954_64)))
 (let ((?x27336 ((_ extract 7 0) args_19_64)))
 (let (($x27385 (= (_ bv0 8) ?x27336)))
 (let ((?x20231 (ite $x27385 (_ bv576460752303357917 64) (_ bv576460752303357918 64))))
 (let ((?x25557 ((_ extract 15 8) args_19_64)))
 (let (($x25388 (= (_ bv0 8) ?x25557)))
 (let ((?x19999 (ite $x25388 (_ bv576460752303357916 64) ?x20231)))
 (let ((?x27267 ((_ extract 23 16) args_19_64)))
 (let (($x27378 (= (_ bv0 8) ?x27267)))
 (let ((?x20088 (ite $x27378 (_ bv576460752303357915 64) ?x19999)))
 (let ((?x25573 ((_ extract 31 24) args_19_64)))
 (let (($x27315 (= (_ bv0 8) ?x25573)))
 (let ((?x20060 (ite $x27315 (_ bv576460752303357914 64) ?x20088)))
 (let ((?x25213 ((_ extract 39 32) args_19_64)))
 (let (($x23385 (= (_ bv0 8) ?x25213)))
 (let ((?x20235 (ite $x23385 (_ bv576460752303357913 64) ?x20060)))
 (let ((?x27324 ((_ extract 47 40) args_19_64)))
 (let (($x27088 (= (_ bv0 8) ?x27324)))
 (let ((?x20237 (ite $x27088 (_ bv576460752303357912 64) ?x20235)))
 (let ((?x24874 ((_ extract 55 48) args_19_64)))
 (let (($x25431 (= (_ bv0 8) ?x24874)))
 (let ((?x20239 (ite $x25431 (_ bv576460752303357911 64) ?x20237)))
 (let ((?x27258 ((_ extract 63 56) args_19_64)))
 (let (($x26264 (= (_ bv0 8) ?x27258)))
 (let ((?x20241 (ite $x26264 (_ bv576460752303357910 64) ?x20239)))
 (= ?x20241 ?x107611)))))))))))))))))))))))))))
(assert
 (let ((?x110032 (bvadd (_ bv1 64) strlen_954_64)))
 (let ((?x109912 ((_ extract 63 4) ?x110032)))
 (= (_ bv0 60) ?x109912))))
(assert
 (let ((?x109653 ((_ extract 3 0) strlen_954_64)))
 (let ((?x109870 (bvadd (_ bv1 4) ?x109653)))
 (bvule ?x109870 (_ bv9 4)))))
(assert
 (bvule strlen_954_64 (_ bv18446744073709551614 64)))
(assert
 (bvsle (_ bv0 64) sys_time_1097_64))
(assert
 (bvsge sys_time_1108_64 sys_time_1097_64))
(maximize args_15_64)
(maximize strlen_426_64)
(maximize args_19_64)
(minimize strlen_158_64)
(maximize sys_time_1108_64)
(maximize args_14_32)
(minimize args_18_64)
(minimize strlen_85_64)
(maximize strlen_716_64)
(maximize args_4_8)
(minimize strlen_935_64)
(maximize strlen_91_64)
(minimize strlen_81_64)
(minimize strlen_645_64)
(maximize args_8_16)
(maximize strlen_892_64)
(maximize strlen_81_64)
(minimize strlen_783_64)
(maximize strlen_116_64)
(minimize strlen_255_64)
(maximize args_2_8)
(minimize args_10_32)
(maximize strlen_143_64)
(minimize strlen_682_64)
(maximize sys_time_1097_64)
(maximize strlen_126_64)
(minimize args_16_64)
(maximize strlen_87_64)
(maximize strlen_750_64)
(minimize strlen_892_64)
(minimize args_4_8)
(minimize args_11_32)
(minimize args_19_64)
(minimize args_2_8)
(maximize args_12_32)
(maximize strlen_682_64)
(minimize sys_time_1108_64)
(maximize args_0_8)
(minimize args_14_32)
(minimize strlen_77_64)
(minimize strlen_914_64)
(maximize strlen_645_64)
(maximize args_16_64)
(maximize strlen_255_64)
(maximize args_6_16)
(minimize args_8_16)
(maximize strlen_529_64)
(maximize strlen_176_64)
(maximize strlen_814_64)
(minimize strlen_108_64)
(minimize args_0_8)
(maximize strlen_493_64)
(maximize args_17_64)
(minimize strlen_126_64)
(minimize strlen_79_64)
(minimize strlen_426_64)
(minimize args_3_8)
(minimize strlen_391_64)
(minimize strlen_529_64)
(maximize strlen_868_64)
(minimize strlen_176_64)
(maximize strlen_242_64)
(maximize strlen_83_64)
(minimize args_15_64)
(maximize strlen_271_64)
(minimize strlen_143_64)
(minimize args_13_32)
(minimize strlen_116_64)
(minimize sys_time_1097_64)
(minimize strlen_750_64)
(maximize strlen_99_64)
(maximize strlen_460_64)
(check-sat)
(get-objectives)
